0 9 89
1 79 101
2 53 108
3 92 109
4 105 109
5 105 109
6 102 109
7 75 108
8 97 109
9 94 109
10 9 109
11 106 110
12 109 111
13 111 112
14 110 111
15 107 111
16 101 110
17 98 110
18 109 109
19 108 108
20 74 107
21 8 108
22 107 110
23 111 111
24 108 109
25 100 110
26 110 110
27 104 109
28 105 108
29 104 107
30 5 107
31 107 108
32 100 108
33 93 108
34 105 107
35 101 109
36 106 108
37 104 108
38 109 111
39 64 111
40 110 110
41 90 109
42 91 108
43 101 108
44 69 108
45 78 106
46 87 104
47 100 101
48 89 101
49 93 100
50 43 100
51 93 102
52 96 103
53 98 102
54 101 102
55 92 101
56 89 102
57 78 101
58 86 100
59 96 98
60 66 96
61 90 94
62 79 93
63 89 92
64 85 90
65 52 90
66 84 89
67 79 87
68 89 89
69 2 88
70 7 89
71 60 90
72 67 91
73 70 90
74 87 89
75 68 88
76 88 89
77 62 88
78 64 88
79 83 87
80 66 85
81 50 85
82 69 81
83 74 83
84 76 82
85 65 78
86 61 75
87 76 76
88 73 74
89 62 74
90 71 74
91 65 75
92 69 74
93 58 73
94 69 72
95 59 70
96 55 69
97 60 67
98 56 65
99 61 63
100 63 65
101 46 63
102 54 60
103 48 56
104 43 55
105 41 54
106 48 52
107 30 52
108 50 50
109 30 50
110 49 53
111 51 51
112 38 51
113 42 49
114 20 47
115 45 45
116 41 43
117 38 45
118 45 46
119 32 44
120 24 40
121 38 38
122 38 39
123 32 38
124 33 38
125 21 37
126 34 37
127 29 34
128 23 33
129 34 34
130 29 32
131 29 31
132 30 31
133 28 30
134 30 31
135 26 29
136 23 25
137 21 26
138 25 27
139 20 25
140 26 28
141 28 28
142 19 27
143 22 23
144 18 26
145 18 24
146 19 24
147 15 23
148 22 22
149 12 20
150 16 18
151 17 18
152 15 17
153 12 16
154 13 16
155 13 14
156 13 17
157 18 19
158 13 18
159 17 18
160 13 20
161 8 20
162 18 18
163 18 18
164 18 18
165 17 19
166 12 16
167 8 16
168 15 15
169 15 15
170 11 15
171 16 16
172 9 15
173 10 14
174 7 14
175 4 13
176 8 13
177 12 12
178 9 13
179 8 13
180 12 13
181 10 12
182 10 10
183 8 8
184 7 8
185 4 5
186 6 6
187 5 5
188 3 6
189 4 4
190 4 5
191 4 5
192 3 5
193 2 5
194 2 3
195 1 2
196 1 3

